c File: flat75_3_0.col
c
c SOURCE: Joseph Culberson (joe@cs.ualberta.ca)
c DESCRIPTION: Quasi-random coloring problem
c              generated with flatness = 0
c                             probability = 0.096
c                             known coloring = 3
c                             random seed = 1011
c              Creation Date:  Wed Feb 24 10:41:49 1999
c Maximum degree = 8 Minimum degree = 2
c COLOR VERIFICATION: Using the permuted order
c under simple greedy yields the specified
c coloring number
c Color = 3 specified partitions = 3
c p edge 75 180
c cnf created by edge2cnf
p cnf 225 840
-1 -2 0
-1 -3 0
-2 -3 0
1 2 3 0
-4 -5 0
-4 -6 0
-5 -6 0
4 5 6 0
-7 -8 0
-7 -9 0
-8 -9 0
7 8 9 0
-10 -11 0
-10 -12 0
-11 -12 0
10 11 12 0
-13 -14 0
-13 -15 0
-14 -15 0
13 14 15 0
-16 -17 0
-16 -18 0
-17 -18 0
16 17 18 0
-19 -20 0
-19 -21 0
-20 -21 0
19 20 21 0
-22 -23 0
-22 -24 0
-23 -24 0
22 23 24 0
-25 -26 0
-25 -27 0
-26 -27 0
25 26 27 0
-28 -29 0
-28 -30 0
-29 -30 0
28 29 30 0
-31 -32 0
-31 -33 0
-32 -33 0
31 32 33 0
-34 -35 0
-34 -36 0
-35 -36 0
34 35 36 0
-37 -38 0
-37 -39 0
-38 -39 0
37 38 39 0
-40 -41 0
-40 -42 0
-41 -42 0
40 41 42 0
-43 -44 0
-43 -45 0
-44 -45 0
43 44 45 0
-46 -47 0
-46 -48 0
-47 -48 0
46 47 48 0
-49 -50 0
-49 -51 0
-50 -51 0
49 50 51 0
-52 -53 0
-52 -54 0
-53 -54 0
52 53 54 0
-55 -56 0
-55 -57 0
-56 -57 0
55 56 57 0
-58 -59 0
-58 -60 0
-59 -60 0
58 59 60 0
-61 -62 0
-61 -63 0
-62 -63 0
61 62 63 0
-64 -65 0
-64 -66 0
-65 -66 0
64 65 66 0
-67 -68 0
-67 -69 0
-68 -69 0
67 68 69 0
-70 -71 0
-70 -72 0
-71 -72 0
70 71 72 0
-73 -74 0
-73 -75 0
-74 -75 0
73 74 75 0
-76 -77 0
-76 -78 0
-77 -78 0
76 77 78 0
-79 -80 0
-79 -81 0
-80 -81 0
79 80 81 0
-82 -83 0
-82 -84 0
-83 -84 0
82 83 84 0
-85 -86 0
-85 -87 0
-86 -87 0
85 86 87 0
-88 -89 0
-88 -90 0
-89 -90 0
88 89 90 0
-91 -92 0
-91 -93 0
-92 -93 0
91 92 93 0
-94 -95 0
-94 -96 0
-95 -96 0
94 95 96 0
-97 -98 0
-97 -99 0
-98 -99 0
97 98 99 0
-100 -101 0
-100 -102 0
-101 -102 0
100 101 102 0
-103 -104 0
-103 -105 0
-104 -105 0
103 104 105 0
-106 -107 0
-106 -108 0
-107 -108 0
106 107 108 0
-109 -110 0
-109 -111 0
-110 -111 0
109 110 111 0
-112 -113 0
-112 -114 0
-113 -114 0
112 113 114 0
-115 -116 0
-115 -117 0
-116 -117 0
115 116 117 0
-118 -119 0
-118 -120 0
-119 -120 0
118 119 120 0
-121 -122 0
-121 -123 0
-122 -123 0
121 122 123 0
-124 -125 0
-124 -126 0
-125 -126 0
124 125 126 0
-127 -128 0
-127 -129 0
-128 -129 0
127 128 129 0
-130 -131 0
-130 -132 0
-131 -132 0
130 131 132 0
-133 -134 0
-133 -135 0
-134 -135 0
133 134 135 0
-136 -137 0
-136 -138 0
-137 -138 0
136 137 138 0
-139 -140 0
-139 -141 0
-140 -141 0
139 140 141 0
-142 -143 0
-142 -144 0
-143 -144 0
142 143 144 0
-145 -146 0
-145 -147 0
-146 -147 0
145 146 147 0
-148 -149 0
-148 -150 0
-149 -150 0
148 149 150 0
-151 -152 0
-151 -153 0
-152 -153 0
151 152 153 0
-154 -155 0
-154 -156 0
-155 -156 0
154 155 156 0
-157 -158 0
-157 -159 0
-158 -159 0
157 158 159 0
-160 -161 0
-160 -162 0
-161 -162 0
160 161 162 0
-163 -164 0
-163 -165 0
-164 -165 0
163 164 165 0
-166 -167 0
-166 -168 0
-167 -168 0
166 167 168 0
-169 -170 0
-169 -171 0
-170 -171 0
169 170 171 0
-172 -173 0
-172 -174 0
-173 -174 0
172 173 174 0
-175 -176 0
-175 -177 0
-176 -177 0
175 176 177 0
-178 -179 0
-178 -180 0
-179 -180 0
178 179 180 0
-181 -182 0
-181 -183 0
-182 -183 0
181 182 183 0
-184 -185 0
-184 -186 0
-185 -186 0
184 185 186 0
-187 -188 0
-187 -189 0
-188 -189 0
187 188 189 0
-190 -191 0
-190 -192 0
-191 -192 0
190 191 192 0
-193 -194 0
-193 -195 0
-194 -195 0
193 194 195 0
-196 -197 0
-196 -198 0
-197 -198 0
196 197 198 0
-199 -200 0
-199 -201 0
-200 -201 0
199 200 201 0
-202 -203 0
-202 -204 0
-203 -204 0
202 203 204 0
-205 -206 0
-205 -207 0
-206 -207 0
205 206 207 0
-208 -209 0
-208 -210 0
-209 -210 0
208 209 210 0
-211 -212 0
-211 -213 0
-212 -213 0
211 212 213 0
-214 -215 0
-214 -216 0
-215 -216 0
214 215 216 0
-217 -218 0
-217 -219 0
-218 -219 0
217 218 219 0
-220 -221 0
-220 -222 0
-221 -222 0
220 221 222 0
-223 -224 0
-223 -225 0
-224 -225 0
223 224 225 0
-13 -1 0
-14 -2 0
-15 -3 0
-67 -1 0
-68 -2 0
-69 -3 0
-88 -1 0
-89 -2 0
-90 -3 0
-184 -1 0
-185 -2 0
-186 -3 0
-190 -1 0
-191 -2 0
-192 -3 0
-193 -1 0
-194 -2 0
-195 -3 0
-10 -4 0
-11 -5 0
-12 -6 0
-55 -4 0
-56 -5 0
-57 -6 0
-112 -4 0
-113 -5 0
-114 -6 0
-136 -4 0
-137 -5 0
-138 -6 0
-178 -4 0
-179 -5 0
-180 -6 0
-22 -7 0
-23 -8 0
-24 -9 0
-82 -7 0
-83 -8 0
-84 -9 0
-169 -7 0
-170 -8 0
-171 -9 0
-76 -10 0
-77 -11 0
-78 -12 0
-97 -10 0
-98 -11 0
-99 -12 0
-151 -10 0
-152 -11 0
-153 -12 0
-220 -10 0
-221 -11 0
-222 -12 0
-76 -13 0
-77 -14 0
-78 -15 0
-94 -13 0
-95 -14 0
-96 -15 0
-178 -13 0
-179 -14 0
-180 -15 0
-202 -13 0
-203 -14 0
-204 -15 0
-31 -16 0
-32 -17 0
-33 -18 0
-82 -16 0
-83 -17 0
-84 -18 0
-100 -16 0
-101 -17 0
-102 -18 0
-139 -16 0
-140 -17 0
-141 -18 0
-160 -16 0
-161 -17 0
-162 -18 0
-214 -16 0
-215 -17 0
-216 -18 0
-85 -19 0
-86 -20 0
-87 -21 0
-127 -19 0
-128 -20 0
-129 -21 0
-136 -19 0
-137 -20 0
-138 -21 0
-139 -19 0
-140 -20 0
-141 -21 0
-163 -19 0
-164 -20 0
-165 -21 0
-52 -22 0
-53 -23 0
-54 -24 0
-94 -22 0
-95 -23 0
-96 -24 0
-166 -22 0
-167 -23 0
-168 -24 0
-187 -22 0
-188 -23 0
-189 -24 0
-196 -22 0
-197 -23 0
-198 -24 0
-28 -25 0
-29 -26 0
-30 -27 0
-82 -25 0
-83 -26 0
-84 -27 0
-64 -28 0
-65 -29 0
-66 -30 0
-91 -28 0
-92 -29 0
-93 -30 0
-97 -28 0
-98 -29 0
-99 -30 0
-169 -28 0
-170 -29 0
-171 -30 0
-217 -28 0
-218 -29 0
-219 -30 0
-49 -31 0
-50 -32 0
-51 -33 0
-52 -31 0
-53 -32 0
-54 -33 0
-67 -31 0
-68 -32 0
-69 -33 0
-133 -34 0
-134 -35 0
-135 -36 0
-142 -34 0
-143 -35 0
-144 -36 0
-181 -34 0
-182 -35 0
-183 -36 0
-190 -34 0
-191 -35 0
-192 -36 0
-178 -37 0
-179 -38 0
-180 -39 0
-184 -37 0
-185 -38 0
-186 -39 0
-220 -37 0
-221 -38 0
-222 -39 0
-52 -40 0
-53 -41 0
-54 -42 0
-82 -40 0
-83 -41 0
-84 -42 0
-85 -40 0
-86 -41 0
-87 -42 0
-124 -40 0
-125 -41 0
-126 -42 0
-127 -40 0
-128 -41 0
-129 -42 0
-130 -40 0
-131 -41 0
-132 -42 0
-211 -40 0
-212 -41 0
-213 -42 0
-79 -43 0
-80 -44 0
-81 -45 0
-136 -43 0
-137 -44 0
-138 -45 0
-220 -43 0
-221 -44 0
-222 -45 0
-100 -46 0
-101 -47 0
-102 -48 0
-106 -46 0
-107 -47 0
-108 -48 0
-160 -46 0
-161 -47 0
-162 -48 0
-172 -46 0
-173 -47 0
-174 -48 0
-133 -49 0
-134 -50 0
-135 -51 0
-58 -52 0
-59 -53 0
-60 -54 0
-103 -52 0
-104 -53 0
-105 -54 0
-58 -55 0
-59 -56 0
-60 -57 0
-61 -55 0
-62 -56 0
-63 -57 0
-64 -55 0
-65 -56 0
-66 -57 0
-97 -55 0
-98 -56 0
-99 -57 0
-139 -55 0
-140 -56 0
-141 -57 0
-178 -55 0
-179 -56 0
-180 -57 0
-217 -55 0
-218 -56 0
-219 -57 0
-64 -58 0
-65 -59 0
-66 -60 0
-121 -58 0
-122 -59 0
-123 -60 0
-133 -58 0
-134 -59 0
-135 -60 0
-175 -58 0
-176 -59 0
-177 -60 0
-208 -58 0
-209 -59 0
-210 -60 0
-97 -61 0
-98 -62 0
-99 -63 0
-109 -61 0
-110 -62 0
-111 -63 0
-172 -61 0
-173 -62 0
-174 -63 0
-88 -64 0
-89 -65 0
-90 -66 0
-193 -64 0
-194 -65 0
-195 -66 0
-208 -64 0
-209 -65 0
-210 -66 0
-223 -64 0
-224 -65 0
-225 -66 0
-115 -67 0
-116 -68 0
-117 -69 0
-157 -67 0
-158 -68 0
-159 -69 0
-79 -70 0
-80 -71 0
-81 -72 0
-130 -70 0
-131 -71 0
-132 -72 0
-127 -73 0
-128 -74 0
-129 -75 0
-145 -73 0
-146 -74 0
-147 -75 0
-148 -73 0
-149 -74 0
-150 -75 0
-181 -73 0
-182 -74 0
-183 -75 0
-184 -73 0
-185 -74 0
-186 -75 0
-190 -73 0
-191 -74 0
-192 -75 0
-205 -73 0
-206 -74 0
-207 -75 0
-208 -73 0
-209 -74 0
-210 -75 0
-127 -79 0
-128 -80 0
-129 -81 0
-166 -79 0
-167 -80 0
-168 -81 0
-190 -79 0
-191 -80 0
-192 -81 0
-115 -82 0
-116 -83 0
-117 -84 0
-175 -82 0
-176 -83 0
-177 -84 0
-205 -82 0
-206 -83 0
-207 -84 0
-130 -85 0
-131 -86 0
-132 -87 0
-106 -88 0
-107 -89 0
-108 -90 0
-115 -88 0
-116 -89 0
-117 -90 0
-130 -88 0
-131 -89 0
-132 -90 0
-163 -88 0
-164 -89 0
-165 -90 0
-208 -88 0
-209 -89 0
-210 -90 0
-211 -88 0
-212 -89 0
-213 -90 0
-142 -91 0
-143 -92 0
-144 -93 0
-205 -91 0
-206 -92 0
-207 -93 0
-211 -91 0
-212 -92 0
-213 -93 0
-100 -94 0
-101 -95 0
-102 -96 0
-193 -94 0
-194 -95 0
-195 -96 0
-196 -94 0
-197 -95 0
-198 -96 0
-211 -94 0
-212 -95 0
-213 -96 0
-121 -97 0
-122 -98 0
-123 -99 0
-139 -97 0
-140 -98 0
-141 -99 0
-193 -97 0
-194 -98 0
-195 -99 0
-196 -100 0
-197 -101 0
-198 -102 0
-205 -100 0
-206 -101 0
-207 -102 0
-220 -100 0
-221 -101 0
-222 -102 0
-217 -103 0
-218 -104 0
-219 -105 0
-124 -106 0
-125 -107 0
-126 -108 0
-136 -106 0
-137 -107 0
-138 -108 0
-169 -106 0
-170 -107 0
-171 -108 0
-223 -106 0
-224 -107 0
-225 -108 0
-121 -109 0
-122 -110 0
-123 -111 0
-124 -109 0
-125 -110 0
-126 -111 0
-145 -109 0
-146 -110 0
-147 -111 0
-190 -109 0
-191 -110 0
-192 -111 0
-148 -112 0
-149 -113 0
-150 -114 0
-163 -115 0
-164 -116 0
-165 -117 0
-148 -118 0
-149 -119 0
-150 -120 0
-202 -118 0
-203 -119 0
-204 -120 0
-160 -121 0
-161 -122 0
-162 -123 0
-178 -121 0
-179 -122 0
-180 -123 0
-184 -121 0
-185 -122 0
-186 -123 0
-214 -121 0
-215 -122 0
-216 -123 0
-148 -124 0
-149 -125 0
-150 -126 0
-163 -124 0
-164 -125 0
-165 -126 0
-217 -124 0
-218 -125 0
-219 -126 0
-223 -124 0
-224 -125 0
-225 -126 0
-208 -127 0
-209 -128 0
-210 -129 0
-184 -130 0
-185 -131 0
-186 -132 0
-187 -130 0
-188 -131 0
-189 -132 0
-202 -130 0
-203 -131 0
-204 -132 0
-169 -133 0
-170 -134 0
-171 -135 0
-196 -133 0
-197 -134 0
-198 -135 0
-142 -136 0
-143 -137 0
-144 -138 0
-199 -136 0
-200 -137 0
-201 -138 0
-145 -142 0
-146 -143 0
-147 -144 0
-169 -142 0
-170 -143 0
-171 -144 0
-154 -145 0
-155 -146 0
-156 -147 0
-181 -145 0
-182 -146 0
-183 -147 0
-151 -148 0
-152 -149 0
-153 -150 0
-175 -148 0
-176 -149 0
-177 -150 0
-187 -148 0
-188 -149 0
-189 -150 0
-160 -151 0
-161 -152 0
-162 -153 0
-157 -154 0
-158 -155 0
-159 -156 0
-199 -154 0
-200 -155 0
-201 -156 0
-175 -157 0
-176 -158 0
-177 -159 0
-196 -157 0
-197 -158 0
-198 -159 0
-211 -157 0
-212 -158 0
-213 -159 0
-166 -160 0
-167 -161 0
-168 -162 0
-202 -166 0
-203 -167 0
-204 -168 0
-211 -169 0
-212 -170 0
-213 -171 0
-181 -172 0
-182 -173 0
-183 -174 0
-184 -175 0
-185 -176 0
-186 -177 0
-214 -178 0
-215 -179 0
-216 -180 0
-205 -181 0
-206 -182 0
-207 -183 0
-199 -187 0
-200 -188 0
-201 -189 0
-196 -193 0
-197 -194 0
-198 -195 0
